<?xml version="1.0" encoding="UTF-8"?><osil xmlns="os.optimizationservices.org" xmlns:xsi="http://www.w3.org/2001/XMLSchema-instance" xsi:schemaLocation="os.optimizationservices.org http://www.optimizationservices.org/schemas/2.0/OSiL.xsd"><instanceHeader><name>ex1252</name></instanceHeader><instanceData><variables numberOfVariables="39"><var name="x1" ub="80"/><var name="x2" ub="25"/><var name="x3" ub="45"/><var name="x4" ub="2.95e3"/><var name="x5" ub="2.95e3"/><var name="x6" ub="2.95e3"/><var name="x7" ub="400"/><var name="x8" ub="400"/><var name="x9" ub="400"/><var name="x10" ub="3.5e2"/><var name="x11" ub="3.5e2"/><var name="x12" ub="3.5e2"/><var name="x13" ub="1"/><var name="x14" ub="1"/><var name="x15" ub="1"/><var name="x16" ub="3"/><var name="x17" ub="3"/><var name="x18" ub="3"/><var name="b19" type="B" ub="1"/><var name="b20" type="B" ub="1"/><var name="b21" type="B" ub="1"/><var name="b22" type="B" ub="1"/><var name="b23" type="B" ub="1"/><var name="b24" type="B" ub="1"/><var name="x25" ub="3"/><var name="x26" ub="3"/><var name="x27" ub="3"/><var name="b28" type="B" ub="1"/><var name="b29" type="B" ub="1"/><var name="b30" type="B" ub="1"/><var name="b31" type="B" ub="1"/><var name="b32" type="B" ub="1"/><var name="b33" type="B" ub="1"/><var name="x34" ub="1"/><var name="x35" ub="1"/><var name="x36" ub="1"/><var name="b37" type="B" ub="1"/><var name="b38" type="B" ub="1"/><var name="b39" type="B" ub="1"/></variables><objectives><obj maxOrMin="min" name="defObj_objvar" numberOfObjCoef="0"/></objectives><constraints numberOfConstraints="43"><con name="e2" lb="0" ub="0"/><con name="e3" lb="0" ub="0"/><con name="e4" lb="0" ub="0"/><con name="e5" lb="0" ub="0"/><con name="e6" lb="0" ub="0"/><con name="e7" lb="0" ub="0"/><con name="e8" lb="1" ub="1"/><con name="e9" lb="0" ub="0"/><con name="e10" lb="0" ub="0"/><con name="e11" lb="0" ub="0"/><con name="e12" lb="0" ub="0"/><con name="e13" lb="0" ub="0"/><con name="e14" lb="0" ub="0"/><con name="e15" ub="0"/><con name="e16" ub="0"/><con name="e17" ub="0"/><con name="e18" ub="0"/><con name="e19" ub="0"/><con name="e20" ub="0"/><con name="e21" ub="0"/><con name="e22" ub="0"/><con name="e23" ub="0"/><con name="e24" ub="0"/><con name="e25" ub="0"/><con name="e26" ub="0"/><con name="e27" ub="0"/><con name="e28" ub="0"/><con name="e29" ub="0"/><con name="e30" ub="0"/><con name="e31" ub="0"/><con name="e32" ub="0"/><con name="e33" ub="0"/><con name="e34" ub="0"/><con name="e35" ub="0"/><con name="e36" lb="0" ub="0"/><con name="e37" lb="0" ub="0"/><con name="e38" lb="0" ub="0"/><con name="e39" lb="0" ub="0"/><con name="e40" lb="0" ub="0"/><con name="e41" lb="0" ub="0"/><con name="e42" lb="0" ub="0"/><con name="e43" lb="0" ub="0"/><con name="e44" lb="0" ub="0"/></constraints><linearConstraintCoefficients numberOfValues="81"><start><el mult="7" incr="1">0</el><el mult="7" incr="1">9</el><el mult="21" incr="2">17</el><el mult="6" incr="3">60</el><el mult="3" incr="2">77</el></start><colIdx><el mult="3" incr="1">0</el><el mult="3" incr="1">6</el><el mult="3" incr="1">12</el><el mult="3" incr="1">12</el><el mult="3" incr="1">33</el><el>3</el><el>33</el><el>4</el><el>34</el><el>5</el><el>35</el><el>0</el><el>33</el><el>1</el><el>34</el><el>2</el><el>35</el><el>6</el><el>33</el><el>7</el><el>34</el><el>8</el><el>35</el><el>9</el><el>33</el><el>10</el><el>34</el><el>11</el><el>35</el><el>12</el><el>33</el><el>13</el><el>34</el><el>14</el><el>35</el><el>15</el><el>33</el><el>16</el><el>34</el><el>17</el><el>35</el><el>24</el><el>33</el><el>25</el><el>34</el><el>26</el><el>35</el><el>15</el><el>18</el><el>19</el><el>16</el><el>20</el><el>21</el><el>17</el><el mult="3" incr="1">22</el><el>27</el><el>28</el><el>25</el><el>29</el><el>30</el><el>26</el><el mult="3" incr="1">31</el><el>36</el><el>34</el><el>37</el><el>35</el><el>38</el></colIdx><value><el mult="9">1</el><el mult="6">-1</el><el>3.38983050847458e-4</el><el>-1</el><el>3.38983050847458e-4</el><el>-1</el><el>3.38983050847458e-4</el><el>-1</el><el>1.25e-2</el><el>-1</el><el>4e-2</el><el>-1</el><el>2.22222222222222e-2</el><el>-1</el><el>2.5e-3</el><el>-1</el><el>2.5e-3</el><el>-1</el><el>2.5e-3</el><el>-1</el><el>2.85714285714286e-3</el><el>-1</el><el>2.85714285714286e-3</el><el>-1</el><el>2.85714285714286e-3</el><el>-1</el><el>1</el><el>-1</el><el>1</el><el>-1</el><el>1</el><el>-1</el><el>1</el><el>-3</el><el>1</el><el>-3</el><el>1</el><el>-3</el><el>1</el><el>-3</el><el>1</el><el>-3</el><el>1</el><el>-3</el><el>1</el><el>-1</el><el>-2</el><el>1</el><el>-1</el><el>-2</el><el>1</el><el>-1</el><el>-2</el><el>1</el><el>-1</el><el>-2</el><el>1</el><el>-1</el><el>-2</el><el>1</el><el>-1</el><el>-2</el><el>1</el><el>-1</el><el>1</el><el>-1</el><el>1</el><el>-1</el></value></linearConstraintCoefficients><quadraticCoefficients numberOfQuadraticTerms="15"><qTerm idx="3" idxOne="3" idxTwo="3" coef="-7.227808101120382e-5"/><qTerm idx="3" idxOne="3" idxTwo="9" coef="-2.3593220338983e-4"/><qTerm idx="3" idxOne="9" idxTwo="9" coef="1.16e-2"/><qTerm idx="4" idxOne="4" idxTwo="4" coef="-2.4705544383797807e-5"/><qTerm idx="4" idxOne="4" idxTwo="10" coef="-1e-3"/><qTerm idx="4" idxOne="10" idxTwo="10" coef=".115"/><qTerm idx="5" idxOne="5" idxTwo="5" coef="-4.148233266302795e-5"/><qTerm idx="5" idxOne="5" idxTwo="11" coef="-1.79661016949153e-4"/><qTerm idx="5" idxOne="11" idxTwo="11" coef="9.46e-3"/><qTerm idx="7" idxOne="9" idxTwo="15" coef="2.85714285714286e-3"/><qTerm idx="8" idxOne="10" idxTwo="16" coef="2.85714285714286e-3"/><qTerm idx="9" idxOne="11" idxTwo="17" coef="2.85714285714286e-3"/><qTerm idx="10" idxOne="6" idxTwo="24" coef="2.5e-3"/><qTerm idx="11" idxOne="7" idxTwo="25" coef="2.5e-3"/><qTerm idx="12" idxOne="8" idxTwo="26" coef="2.5e-3"/></quadraticCoefficients><nonlinearExpressions numberOfNonlinearExpressions="4"><nl idx="-1"><sum><product><sum><number value="6329.03"/><variable idx="0" coef="1.8e3"/></sum><variable idx="15"/><variable idx="24"/><variable idx="33"/></product><product><sum><number value="2489.31"/><variable idx="1" coef="1.8e3"/></sum><variable idx="16"/><variable idx="25"/><variable idx="34"/></product><product><sum><number value="3270.27"/><variable idx="2" coef="1.8e3"/></sum><variable idx="17"/><variable idx="26"/><variable idx="35"/></product></sum></nl><nl idx="0"><sum><product><power><variable idx="3" coef="3.38983050847458e-4"/><number value="3"/></power><number value="-19.9"/></product><product><square><variable idx="3" coef="3.38983050847458e-4"/></square><number value="-.161"/><variable idx="9"/></product><product><square><variable idx="9"/></square><number value="1.90169491525424e-7"/><variable idx="3"/></product></sum></nl><nl idx="1"><sum><product><power><variable idx="4" coef="3.38983050847458e-4"/><number value="3"/></power><number value="-1.21"/></product><product><square><variable idx="4" coef="3.38983050847458e-4"/></square><number value="-6.44e-2"/><variable idx="10"/></product><product><square><variable idx="10"/></square><number value="1.91186440677966e-7"/><variable idx="4"/></product></sum></nl><nl idx="2"><sum><product><power><variable idx="5" coef="3.38983050847458e-4"/><number value="3"/></power><number value="-6.52"/></product><product><square><variable idx="5" coef="3.38983050847458e-4"/></square><number value="-.102"/><variable idx="11"/></product><product><square><variable idx="11"/></square><number value="7.86440677966102e-8"/><variable idx="5"/></product></sum></nl></nonlinearExpressions></instanceData></osil>